qbf_easy_train/easy_5574_UNSAT.qdimacs
p cnf 28 73
a 16 19 5 0
e 1 2 3 4 6 7 8 9 10 11 12 13 14 15 17 18 20 21 22 23 24 25 26 27 28 0
-3 -1 0
-3 2 0
1 -2 3 0
6 -4 0
6 5 0
4 -5 -6 0
-7 -3 0
-7 6 0
3 -6 7 0
1 5 -8 0
-1 -5 -8 0
1 -5 8 0
-1 5 8 0
-10 -9 0
-10 -5 0
9 5 10 0
12 -9 0
12 -11 0
9 11 -12 0
13 10 0
13 12 0
-10 -12 -13 0
15 -5 0
15 14 0
5 -14 -15 0
-16 1 0
-16 15 0
-1 -15 16 0
-17 13 0
-17 -16 0
-13 16 17 0
8 -17 -18 0
-8 17 -18 0
8 17 18 0
-8 -17 18 0
7 18 -19 0
-7 -18 -19 0
7 -18 19 0
-7 18 19 0
-20 4 0
-20 -11 0
-4 11 20 0
-22 -21 0
-22 14 0
21 -14 22 0
23 20 0
23 22 0
-20 -22 -23 0
24 11 0
24 5 0
-11 -5 -24 0
11 21 -25 0
-11 -21 -25 0
11 -21 25 0
-11 21 25 0
-26 -24 0
-26 -25 0
24 25 26 0
27 23 0
27 -26 0
-23 26 -27 0
-19 -27 -28 0
19 27 -28 0
-19 27 28 0
19 -27 28 0
14 -23 -21 1 25 0
13 -20 -28 0
-8 5 -23 -26 0
-6 14 -3 -26 25 0
-11 -3 -26 10 15 -5 22 0
7 -1 25 -27 0
-18 -9 23 -25 0
28 0
