sat_easy_train/easy_5574_UNSAT.dimacs
p cnf 127 430
-3 1 0
-3 -2 0
-1 2 3 0
-3 -4 -5 0
3 4 -5 0
-3 4 5 0
3 -4 5 0
-7 -5 0
-7 -6 0
5 6 7 0
-8 9 -10 0
8 -9 -10 0
-8 -9 10 0
8 9 10 0
7 -10 -11 0
-7 10 -11 0
7 10 11 0
-7 -10 11 0
-12 -2 0
-12 4 0
2 -4 12 0
14 -13 0
14 -6 0
13 6 -14 0
8 -14 -15 0
-8 14 -15 0
8 14 15 0
-8 -14 15 0
-16 15 0
-16 -6 0
-15 6 16 0
12 -16 -17 0
-12 16 -17 0
12 16 17 0
-12 -16 17 0
-9 -18 -19 0
9 18 -19 0
-9 18 19 0
9 -18 19 0
20 17 0
20 -19 0
-17 19 -20 0
21 -9 0
21 15 0
9 -15 -21 0
21 22 -23 0
-21 -22 -23 0
21 -22 23 0
-21 22 23 0
24 20 0
24 23 0
-20 -23 -24 0
25 -11 0
25 -24 0
11 24 -25 0
-27 26 0
-27 -8 0
-26 8 27 0
-27 28 -29 0
27 -28 -29 0
-27 -28 29 0
27 28 29 0
-30 29 0
-30 2 0
-29 -2 30 0
31 30 0
31 18 0
-30 -18 -31 0
-33 -31 0
-33 32 0
31 -32 33 0
-34 22 0
-34 33 0
-22 -33 34 0
-35 -14 0
-35 6 0
14 -6 35 0
36 14 0
36 35 0
-14 -35 -36 0
37 -6 0
37 32 0
6 -32 -37 0
38 -15 0
38 4 0
15 -4 -38 0
-39 -37 0
-39 -38 0
37 38 39 0
-40 -9 0
-40 1 0
9 -1 40 0
41 -39 0
41 -40 0
39 40 -41 0
42 18 0
42 -21 0
-18 21 -42 0
-43 -12 0
-43 -42 0
12 42 43 0
44 -43 0
44 2 0
43 -2 -44 0
-45 -44 0
-45 13 0
44 -13 45 0
13 27 -46 0
-13 -27 -46 0
13 -27 46 0
-13 27 46 0
-45 -46 -47 0
45 46 -47 0
-45 46 47 0
45 -46 47 0
-48 15 0
-48 12 0
-15 -12 48 0
-49 -18 0
-49 -40 0
18 40 49 0
29 -26 -50 0
-29 26 -50 0
29 26 50 0
-29 -26 50 0
-49 50 -51 0
49 -50 -51 0
-49 -50 51 0
49 50 51 0
52 -48 0
52 -51 0
48 51 -52 0
53 -47 0
53 52 0
47 -52 -53 0
54 -41 0
54 53 0
41 -53 -54 0
36 -54 -55 0
-36 54 -55 0
36 54 55 0
-36 -54 55 0
56 -34 0
56 55 0
34 -55 -56 0
-25 -56 -57 0
25 56 -57 0
-25 56 57 0
25 -56 57 0
-58 32 0
-58 6 0
-32 -6 58 0
58 12 -59 0
-58 -12 -59 0
58 -12 59 0
-58 12 59 0
60 48 -61 0
-60 -48 -61 0
60 -48 61 0
-60 48 61 0
-62 -59 0
-62 61 0
59 -61 62 0
-13 -10 -63 0
13 10 -63 0
-13 10 63 0
13 -10 63 0
-63 -64 0
63 -64 0
62 -64 -65 0
-62 64 -65 0
62 64 65 0
-62 -64 65 0
-57 -65 -66 0
57 65 -66 0
-57 65 66 0
57 -65 66 0
67 -8 0
67 -29 0
8 29 -67 0
-68 18 0
-68 58 0
-18 -58 68 0
-69 68 0
-69 -10 0
-68 10 69 0
70 69 0
70 46 0
-69 -46 -70 0
71 -70 0
71 -70 0
70 -71 0
-72 10 0
-72 -12 0
-10 12 72 0
73 -72 0
73 30 0
72 -30 -73 0
-74 -71 0
-74 73 0
71 -73 74 0
-75 -39 0
-75 -13 0
39 13 75 0
-74 75 -76 0
74 -75 -76 0
-74 -75 76 0
74 75 76 0
-67 -76 -77 0
67 76 -77 0
-67 76 77 0
67 -76 77 0
-72 17 -78 0
72 -17 -78 0
-72 -17 78 0
72 17 78 0
-79 -48 0
-79 27 0
48 -27 79 0
-79 26 -80 0
79 -26 -80 0
-79 -26 80 0
79 26 80 0
-81 -78 0
-81 80 0
78 -80 81 0
2 -21 -82 0
-2 21 -82 0
2 21 82 0
-2 -21 82 0
83 81 0
83 82 0
-81 -82 -83 0
84 -77 0
84 83 0
77 -83 -84 0
-27 49 -86 0
27 -49 -86 0
-27 -49 86 0
27 49 86 0
-87 -32 0
-87 -38 0
32 38 87 0
-86 -87 -88 0
86 87 -88 0
-86 87 88 0
86 -87 88 0
85 88 -89 0
-85 -88 -89 0
85 -88 89 0
-85 88 89 0
88 45 -90 0
-88 -45 -90 0
88 -45 90 0
-88 45 90 0
-89 -90 -91 0
89 90 -91 0
-89 90 91 0
89 -90 91 0
-92 6 0
-92 -10 0
-6 10 92 0
-93 -92 0
-93 4 0
92 -4 93 0
-1 -93 -94 0
1 93 -94 0
-1 93 94 0
1 -93 94 0
91 94 -95 0
-91 -94 -95 0
91 -94 95 0
-91 94 95 0
96 -84 0
96 95 0
84 -95 -96 0
97 66 0
97 -96 0
-66 96 -97 0
-98 -45 0
-98 -39 0
45 39 98 0
70 -6 -99 0
-70 6 -99 0
70 6 99 0
-70 -6 99 0
100 -98 0
100 99 0
98 -99 -100 0
101 -39 0
101 -42 0
39 42 -101 0
50 101 -102 0
-50 -101 -102 0
50 -101 102 0
-50 101 102 0
-103 -87 0
-103 43 0
87 -43 103 0
-104 -102 0
-104 103 0
102 -103 104 0
-105 -100 0
-105 -104 0
100 104 105 0
107 -106 0
107 -49 0
106 49 -107 0
19 -29 -108 0
-19 29 -108 0
19 29 108 0
-19 -29 108 0
-109 16 0
-109 32 0
-16 -32 109 0
-108 -109 -110 0
108 109 -110 0
-108 109 110 0
108 -109 110 0
111 -107 0
111 110 0
107 -110 -111 0
-105 -111 -112 0
105 111 -112 0
-105 111 112 0
105 -111 112 0
113 -68 0
113 -27 0
68 27 -113 0
-114 -113 0
-114 -58 0
113 58 114 0
-115 -71 0
-115 114 0
71 -114 115 0
-116 -30 0
-116 -98 0
30 98 116 0
73 -117 -118 0
-73 117 -118 0
73 117 118 0
-73 -117 118 0
119 -118 0
119 -4 0
118 4 -119 0
-113 108 -120 0
113 -108 -120 0
-113 -108 120 0
113 108 120 0
-119 120 -121 0
119 -120 -121 0
-119 -120 121 0
119 120 121 0
26 8 -122 0
-26 -8 -122 0
26 -8 122 0
-26 8 122 0
123 -121 0
123 -122 0
121 122 -123 0
116 123 -124 0
-116 -123 -124 0
116 -123 124 0
-116 123 124 0
-125 -115 0
-125 124 0
115 -124 125 0
-126 -112 0
-126 -125 0
112 125 126 0
-127 97 0
-127 126 0
-97 -126 127 0
-112 111 0
-89 99 -7 0
111 -16 29 0
-90 -40 -48 83 -97 0
59 -99 55 -77 -21 0
-120 53 -39 -29 74 24 0
45 24 9 -71 0
47 100 106 -44 0
-115 -82 -43 73 0
69 71 104 -65 0
-25 -86 43 121 0
-112 -125 -71 16 111 0
-5 -21 0
126 -93 102 0
12 99 4 107 -111 0
125 -12 15 118 75 0
-86 -72 79 0
-44 -69 77 6 98 126 0
21 112 -14 -42 -81 0
-70 -11 -117 50 -15 71 0
-77 -14 75 -41 28 0
124 -35 -97 -127 -9 66 0
30 -17 -97 -125 0
89 111 71 0
54 71 -90 -80 -67 0
54 -93 102 37 0
69 26 -5 0
-35 -89 -59 0
-77 4 -76 67 0
-110 120 78 37 0
8 -63 0
-60 105 -92 65 0
20 38 -52 0
-34 -116 0
-110 89 0
-5 41 75 -28 -70 0
118 99 -78 -17 0
34 16 -75 53 0
23 43 0
72 104 0
107 71 -101 39 -67 0
66 -121 95 0
64 -56 81 14 102 -97 0
1 46 0
77 124 -33 5 -40 -25 0
-76 84 -25 8 95 0
120 -46 0
-49 45 -96 25 0
110 94 35 0
-65 -14 -94 0
-14 -15 -97 44 0
125 46 78 0
123 -6 -16 0
71 97 -96 -16 0
19 -25 96 0
20 55 43 -36 -31 0
127 0
